(set-info :source |printed by MathSAT|)
(declare-fun |!{$(in_main#0)<$(in_rec_array_insert_sort#4)<array>>}| () Int)
(declare-fun |!{$(in_main#0)<$(in_rec_array_insert_sort#4)<array>>}.next| () Int)
(declare-fun |!{$(in_main#0)<$(in_rec_array_insert_sort#4)<N>>}| () Int)
(declare-fun |!{$(in_main#0)<$(in_rec_array_insert_sort#4)<N>>}.next| () Int)
(declare-fun |!{$(in_main#0)<$(in_rec_array_insert_sort#4)<k>>}| () Int)
(declare-fun |!{$(in_main#0)<$(in_rec_array_insert_sort#4)<k>>}.next| () Int)
(declare-fun |!{$(in_main#0)<$(in_rec_array_insert_sort#4)<l>>}| () Int)
(declare-fun |!{$(in_main#0)<$(in_rec_array_insert_sort#4)<l>>}.next| () Int)
(declare-fun |!{$(in_main#0)<N>}| () Int)
(declare-fun |!{$(in_main#0)<N>}.next| () Int)
(declare-fun |!{$(in_main#0)<&array>}| () Int)
(declare-fun |!{$(in_main#0)<&array>}.next| () Int)
(declare-fun |!{$(in_main#0)<k>}| () Int)
(declare-fun |!{$(in_main#0)<k>}.next| () Int)
(declare-fun |!{$(in_main#0)<$(in_rec_array_insert_sort#4)<$(in_rec_array_insert_sort#0)<array>>>}| () Int)
(declare-fun |!{$(in_main#0)<$(in_rec_array_insert_sort#4)<$(in_rec_array_insert_sort#0)<array>>>}.next| () Int)
(declare-fun |!{$(in_main#0)<k#1>}| () Int)
(declare-fun |!{$(in_main#0)<k#1>}.next| () Int)
(declare-fun |!{$(in_main#0)<$(in_rec_array_insert_sort#4)<$(in_rec_array_insert_sort#0)<N>>>}| () Int)
(declare-fun |!{$(in_main#0)<$(in_rec_array_insert_sort#4)<$(in_rec_array_insert_sort#0)<N>>>}.next| () Int)
(declare-fun |!{$(in_main#0)<l>}| () Int)
(declare-fun |!{$(in_main#0)<l>}.next| () Int)
(declare-fun |!{%memaddr}| () Int)
(declare-fun |!{%memaddr}.next| () Int)
(declare-fun |!{$(in_main#0)<$(in_rec_array_insert_sort#4)<$(in_rec_array_insert_sort#0)<k>>>}| () Int)
(declare-fun |!{$(in_main#0)<$(in_rec_array_insert_sort#4)<$(in_rec_array_insert_sort#0)<k>>>}.next| () Int)
(declare-fun |!{$(in_main#0)<$(in_rec_array_insert_sort#4)<$(in_rec_array_insert_sort#0)<l>>>}| () Int)
(declare-fun |!{$(in_main#0)<$(in_rec_array_insert_sort#4)<$(in_rec_array_insert_sort#0)<l>>>}.next| () Int)
(declare-fun |!{%mem.0}| () (Array Int Int))
(declare-fun |!{%mem.0}.next| () (Array Int Int))
(declare-fun |!{$(in_main#0)<$(in___VERIFIER_nondet_int#1)<h#<__VERIFIER_nondet_int.return>>>}| () Int)
(declare-fun |!{$(in_main#0)<$(in___VERIFIER_nondet_int#3)<h#<__VERIFIER_nondet_int.return>>>}| () Int)
(declare-fun !pc () Int)
(declare-fun !pc.next () Int)
(declare-fun |%{$(in_main#0)<k#1>}#1| () Int)
(declare-fun |%{$(in_main#0)<l>}#1| () Int)
(declare-fun |%{$(in_main#0)<$(in_rec_array_insert_sort#4)<k>>}#1| () Int)
(declare-fun |%{$(in_main#0)<$(in_rec_array_insert_sort#4)<l>>}#1| () Int)
(declare-fun |%{$(in_main#0)<$(in_rec_array_insert_sort#4)<$(in_rec_array_insert_sort#0)<k>>>}#1| () Int)
(declare-fun |%{$(in_main#0)<$(in_rec_array_insert_sort#4)<$(in_rec_array_insert_sort#0)<l>>>}#1| () Int)
(define-fun .def_61 () Int (! !pc :next !pc.next))
(define-fun .def_64 () Bool (! (= .def_61 2) :init true))
(define-fun .def_491 () Bool (= .def_61 48))
(define-fun .def_227 () Bool (= !pc.next 182))
(define-fun .def_500 () Bool (and .def_227 .def_491))
(define-fun .def_442 () Bool (= |!{$(in_main#0)<$(in_rec_array_insert_sort#4)<l>>}.next| |%{$(in_main#0)<$(in_rec_array_insert_sort#4)<l>>}#1|))
(define-fun .def_440 () Bool (= |!{$(in_main#0)<$(in_rec_array_insert_sort#4)<k>>}.next| |%{$(in_main#0)<$(in_rec_array_insert_sort#4)<k>>}#1|))
(define-fun .def_16 () Int (! |!{$(in_main#0)<N>}| :next |!{$(in_main#0)<N>}.next|))
(define-fun .def_436 () Int (* (- 1) .def_16))
(define-fun .def_437 () Int (+ |!{$(in_main#0)<$(in_rec_array_insert_sort#4)<N>>}.next| .def_436))
(define-fun .def_438 () Bool (= .def_437 (- 1)))
(define-fun .def_18 () Int (! |!{$(in_main#0)<&array>}| :next |!{$(in_main#0)<&array>}.next|))
(define-fun .def_435 () Bool (= |!{$(in_main#0)<$(in_rec_array_insert_sort#4)<array>>}.next| .def_18))
(define-fun .def_439 () Bool (and .def_435 .def_438))
(define-fun .def_441 () Bool (and .def_439 .def_440))
(define-fun .def_443 () Bool (and .def_441 .def_442))
(define-fun .def_122 () Bool (= .def_16 |!{$(in_main#0)<N>}.next|))
(define-fun .def_444 () Bool (and .def_122 .def_443))
(define-fun .def_124 () Bool (= .def_18 |!{$(in_main#0)<&array>}.next|))
(define-fun .def_445 () Bool (and .def_124 .def_444))
(define-fun .def_20 () Int (! |!{$(in_main#0)<k>}| :next |!{$(in_main#0)<k>}.next|))
(define-fun .def_126 () Bool (= .def_20 |!{$(in_main#0)<k>}.next|))
(define-fun .def_446 () Bool (and .def_126 .def_445))
(define-fun .def_256 () Bool (= |!{$(in_main#0)<k#1>}.next| 0))
(define-fun .def_481 () Bool (and .def_256 .def_446))
(define-fun .def_22 () Int (! |!{$(in_main#0)<$(in_rec_array_insert_sort#4)<$(in_rec_array_insert_sort#0)<array>>>}| :next |!{$(in_main#0)<$(in_rec_array_insert_sort#4)<$(in_rec_array_insert_sort#0)<array>>>}.next|))
(define-fun .def_96 () Bool (= .def_22 |!{$(in_main#0)<$(in_rec_array_insert_sort#4)<$(in_rec_array_insert_sort#0)<array>>>}.next|))
(define-fun .def_482 () Bool (and .def_96 .def_481))
(define-fun .def_30 () Int (! |!{%memaddr}| :next |!{%memaddr}.next|))
(define-fun .def_131 () Bool (= .def_30 |!{%memaddr}.next|))
(define-fun .def_483 () Bool (and .def_131 .def_482))
(define-fun .def_28 () Int (! |!{$(in_main#0)<l>}| :next |!{$(in_main#0)<l>}.next|))
(define-fun .def_152 () Bool (= .def_28 |!{$(in_main#0)<l>}.next|))
(define-fun .def_484 () Bool (and .def_152 .def_483))
(define-fun .def_26 () Int (! |!{$(in_main#0)<$(in_rec_array_insert_sort#4)<$(in_rec_array_insert_sort#0)<N>>>}| :next |!{$(in_main#0)<$(in_rec_array_insert_sort#4)<$(in_rec_array_insert_sort#0)<N>>>}.next|))
(define-fun .def_102 () Bool (= .def_26 |!{$(in_main#0)<$(in_rec_array_insert_sort#4)<$(in_rec_array_insert_sort#0)<N>>>}.next|))
(define-fun .def_485 () Bool (and .def_102 .def_484))
(define-fun .def_32 () Int (! |!{$(in_main#0)<$(in_rec_array_insert_sort#4)<$(in_rec_array_insert_sort#0)<k>>>}| :next |!{$(in_main#0)<$(in_rec_array_insert_sort#4)<$(in_rec_array_insert_sort#0)<k>>>}.next|))
(define-fun .def_104 () Bool (= .def_32 |!{$(in_main#0)<$(in_rec_array_insert_sort#4)<$(in_rec_array_insert_sort#0)<k>>>}.next|))
(define-fun .def_486 () Bool (and .def_104 .def_485))
(define-fun .def_36 () (Array Int Int) (! |!{%mem.0}| :next |!{%mem.0}.next|))
(define-fun .def_106 () Bool (= .def_36 |!{%mem.0}.next|))
(define-fun .def_487 () Bool (and .def_106 .def_486))
(define-fun .def_34 () Int (! |!{$(in_main#0)<$(in_rec_array_insert_sort#4)<$(in_rec_array_insert_sort#0)<l>>>}| :next |!{$(in_main#0)<$(in_rec_array_insert_sort#4)<$(in_rec_array_insert_sort#0)<l>>>}.next|))
(define-fun .def_108 () Bool (= .def_34 |!{$(in_main#0)<$(in_rec_array_insert_sort#4)<$(in_rec_array_insert_sort#0)<l>>>}.next|))
(define-fun .def_488 () Bool (and .def_108 .def_487))
(define-fun .def_408 () Bool (<= .def_16 1))
(define-fun .def_489 () Bool (and .def_408 .def_488))
(define-fun .def_401 () Bool (<= .def_16 .def_20))
(define-fun .def_490 () Bool (and .def_401 .def_489))
(define-fun .def_501 () Bool (and .def_490 .def_500))
(define-fun .def_324 () Bool (= !pc.next 140))
(define-fun .def_497 () Bool (and .def_324 .def_491))
(define-fun .def_474 () Bool (= |!{$(in_main#0)<$(in_rec_array_insert_sort#4)<$(in_rec_array_insert_sort#0)<k>>>}.next| |%{$(in_main#0)<$(in_rec_array_insert_sort#4)<$(in_rec_array_insert_sort#0)<k>>>}#1|))
(define-fun .def_344 () Bool (= |!{$(in_main#0)<$(in_rec_array_insert_sort#4)<k>>}.next| 0))
(define-fun .def_464 () Bool (and .def_344 .def_439))
(define-fun .def_465 () Bool (and .def_442 .def_464))
(define-fun .def_466 () Bool (and .def_122 .def_465))
(define-fun .def_467 () Bool (and .def_124 .def_466))
(define-fun .def_468 () Bool (and .def_126 .def_467))
(define-fun .def_24 () Int (! |!{$(in_main#0)<k#1>}| :next |!{$(in_main#0)<k#1>}.next|))
(define-fun .def_128 () Bool (= .def_24 |!{$(in_main#0)<k#1>}.next|))
(define-fun .def_469 () Bool (and .def_128 .def_468))
(define-fun .def_448 () Bool (= .def_18 |!{$(in_main#0)<$(in_rec_array_insert_sort#4)<$(in_rec_array_insert_sort#0)<array>>>}.next|))
(define-fun .def_470 () Bool (and .def_448 .def_469))
(define-fun .def_471 () Bool (and .def_131 .def_470))
(define-fun .def_472 () Bool (and .def_152 .def_471))
(define-fun .def_452 () Int (* (- 1) |!{$(in_main#0)<$(in_rec_array_insert_sort#4)<$(in_rec_array_insert_sort#0)<N>>>}.next|))
(define-fun .def_453 () Int (+ .def_16 .def_452))
(define-fun .def_454 () Bool (= .def_453 2))
(define-fun .def_473 () Bool (and .def_454 .def_472))
(define-fun .def_475 () Bool (and .def_473 .def_474))
(define-fun .def_476 () Bool (and .def_106 .def_475))
(define-fun .def_459 () Bool (= |!{$(in_main#0)<$(in_rec_array_insert_sort#4)<$(in_rec_array_insert_sort#0)<l>>>}.next| |%{$(in_main#0)<$(in_rec_array_insert_sort#4)<$(in_rec_array_insert_sort#0)<l>>>}#1|))
(define-fun .def_477 () Bool (and .def_459 .def_476))
(define-fun .def_413 () Bool (<= .def_16 2))
(define-fun .def_478 () Bool (and .def_413 .def_477))
(define-fun .def_409 () Bool (not .def_408))
(define-fun .def_479 () Bool (and .def_409 .def_478))
(define-fun .def_480 () Bool (and .def_401 .def_479))
(define-fun .def_498 () Bool (and .def_480 .def_497))
(define-fun .def_396 () Bool (= !pc.next 98))
(define-fun .def_494 () Bool (and .def_396 .def_491))
(define-fun .def_456 () Bool (= |!{$(in_main#0)<$(in_rec_array_insert_sort#4)<$(in_rec_array_insert_sort#0)<k>>>}.next| 0))
(define-fun .def_447 () Bool (and .def_128 .def_446))
(define-fun .def_449 () Bool (and .def_447 .def_448))
(define-fun .def_450 () Bool (and .def_131 .def_449))
(define-fun .def_451 () Bool (and .def_152 .def_450))
(define-fun .def_455 () Bool (and .def_451 .def_454))
(define-fun .def_457 () Bool (and .def_455 .def_456))
(define-fun .def_458 () Bool (and .def_106 .def_457))
(define-fun .def_460 () Bool (and .def_458 .def_459))
(define-fun .def_414 () Bool (not .def_413))
(define-fun .def_461 () Bool (and .def_414 .def_460))
(define-fun .def_462 () Bool (and .def_409 .def_461))
(define-fun .def_463 () Bool (and .def_401 .def_462))
(define-fun .def_495 () Bool (and .def_463 .def_494))
(define-fun .def_112 () Bool (= !pc.next 48))
(define-fun .def_492 () Bool (and .def_112 .def_491))
(define-fun .def_403 () Int (+ .def_18 .def_20))
(define-fun .def_404 () (Array Int Int) (store .def_36 .def_403 |!{$(in_main#0)<$(in___VERIFIER_nondet_int#3)<h#<__VERIFIER_nondet_int.return>>>}|))
(define-fun .def_431 () Bool (= |!{%mem.0}.next| .def_404))
(define-fun .def_421 () Int (* (- 1) |!{$(in_main#0)<k>}.next|))
(define-fun .def_422 () Int (+ .def_20 .def_421))
(define-fun .def_423 () Bool (= .def_422 (- 1)))
(define-fun .def_14 () Int (! |!{$(in_main#0)<$(in_rec_array_insert_sort#4)<l>>}| :next |!{$(in_main#0)<$(in_rec_array_insert_sort#4)<l>>}.next|))
(define-fun .def_86 () Bool (= .def_14 |!{$(in_main#0)<$(in_rec_array_insert_sort#4)<l>>}.next|))
(define-fun .def_12 () Int (! |!{$(in_main#0)<$(in_rec_array_insert_sort#4)<k>>}| :next |!{$(in_main#0)<$(in_rec_array_insert_sort#4)<k>>}.next|))
(define-fun .def_84 () Bool (= .def_12 |!{$(in_main#0)<$(in_rec_array_insert_sort#4)<k>>}.next|))
(define-fun .def_10 () Int (! |!{$(in_main#0)<$(in_rec_array_insert_sort#4)<N>>}| :next |!{$(in_main#0)<$(in_rec_array_insert_sort#4)<N>>}.next|))
(define-fun .def_82 () Bool (= .def_10 |!{$(in_main#0)<$(in_rec_array_insert_sort#4)<N>>}.next|))
(define-fun .def_8 () Int (! |!{$(in_main#0)<$(in_rec_array_insert_sort#4)<array>>}| :next |!{$(in_main#0)<$(in_rec_array_insert_sort#4)<array>>}.next|))
(define-fun .def_81 () Bool (= .def_8 |!{$(in_main#0)<$(in_rec_array_insert_sort#4)<array>>}.next|))
(define-fun .def_83 () Bool (and .def_81 .def_82))
(define-fun .def_85 () Bool (and .def_83 .def_84))
(define-fun .def_87 () Bool (and .def_85 .def_86))
(define-fun .def_123 () Bool (and .def_87 .def_122))
(define-fun .def_125 () Bool (and .def_123 .def_124))
(define-fun .def_424 () Bool (and .def_125 .def_423))
(define-fun .def_425 () Bool (and .def_128 .def_424))
(define-fun .def_426 () Bool (and .def_96 .def_425))
(define-fun .def_427 () Bool (and .def_131 .def_426))
(define-fun .def_428 () Bool (and .def_152 .def_427))
(define-fun .def_429 () Bool (and .def_102 .def_428))
(define-fun .def_430 () Bool (and .def_104 .def_429))
(define-fun .def_432 () Bool (and .def_430 .def_431))
(define-fun .def_433 () Bool (and .def_108 .def_432))
(define-fun .def_402 () Bool (not .def_401))
(define-fun .def_434 () Bool (and .def_402 .def_433))
(define-fun .def_493 () Bool (and .def_434 .def_492))
(define-fun .def_496 () Bool (or .def_493 .def_495))
(define-fun .def_499 () Bool (or .def_496 .def_498))
(define-fun .def_502 () Bool (or .def_499 .def_501))
(define-fun .def_393 () Bool (= .def_61 106))
(define-fun .def_397 () Bool (and .def_393 .def_396))
(define-fun .def_386 () Int (* (- 1) |!{$(in_main#0)<$(in_rec_array_insert_sort#4)<$(in_rec_array_insert_sort#0)<k>>>}.next|))
(define-fun .def_387 () Int (+ .def_32 .def_386))
(define-fun .def_388 () Bool (= .def_387 (- 1)))
(define-fun .def_127 () Bool (and .def_125 .def_126))
(define-fun .def_129 () Bool (and .def_127 .def_128))
(define-fun .def_130 () Bool (and .def_96 .def_129))
(define-fun .def_132 () Bool (and .def_130 .def_131))
(define-fun .def_335 () Bool (and .def_132 .def_152))
(define-fun .def_336 () Bool (and .def_102 .def_335))
(define-fun .def_389 () Bool (and .def_336 .def_388))
(define-fun .def_390 () Bool (and .def_106 .def_389))
(define-fun .def_391 () Bool (and .def_108 .def_390))
(define-fun .def_369 () Bool (<= .def_34 .def_26))
(define-fun .def_380 () Bool (not .def_369))
(define-fun .def_392 () Bool (and .def_380 .def_391))
(define-fun .def_398 () Bool (and .def_392 .def_397))
(define-fun .def_362 () Bool (= !pc.next 106))
(define-fun .def_394 () Bool (and .def_362 .def_393))
(define-fun .def_339 () Int (* (- 1) |!{$(in_main#0)<$(in_rec_array_insert_sort#4)<$(in_rec_array_insert_sort#0)<l>>>}.next|))
(define-fun .def_381 () Int (+ .def_34 .def_339))
(define-fun .def_382 () Bool (= .def_381 (- 1)))
(define-fun .def_337 () Bool (and .def_104 .def_336))
(define-fun .def_338 () Bool (and .def_106 .def_337))
(define-fun .def_383 () Bool (and .def_338 .def_382))
(define-fun .def_372 () Int (+ .def_22 .def_34))
(define-fun .def_373 () Int (select .def_36 .def_372))
(define-fun .def_370 () Int (+ .def_22 .def_32))
(define-fun .def_371 () Int (select .def_36 .def_370))
(define-fun .def_374 () Bool (<= .def_371 .def_373))
(define-fun .def_375 () Int (ite .def_374 1 0))
(define-fun .def_376 () Bool (= .def_375 0))
(define-fun .def_377 () Bool (not .def_376))
(define-fun .def_384 () Bool (and .def_377 .def_383))
(define-fun .def_385 () Bool (and .def_369 .def_384))
(define-fun .def_395 () Bool (and .def_385 .def_394))
(define-fun .def_399 () Bool (or .def_395 .def_398))
(define-fun .def_360 () Bool (= .def_61 98))
(define-fun .def_365 () Bool (and .def_324 .def_360))
(define-fun .def_345 () Bool (and .def_83 .def_344))
(define-fun .def_346 () Bool (and .def_86 .def_345))
(define-fun .def_347 () Bool (and .def_122 .def_346))
(define-fun .def_348 () Bool (and .def_124 .def_347))
(define-fun .def_349 () Bool (and .def_126 .def_348))
(define-fun .def_350 () Bool (and .def_128 .def_349))
(define-fun .def_351 () Bool (and .def_96 .def_350))
(define-fun .def_352 () Bool (and .def_131 .def_351))
(define-fun .def_353 () Bool (and .def_152 .def_352))
(define-fun .def_354 () Bool (and .def_102 .def_353))
(define-fun .def_355 () Bool (and .def_104 .def_354))
(define-fun .def_356 () Bool (and .def_106 .def_355))
(define-fun .def_357 () Bool (and .def_108 .def_356))
(define-fun .def_330 () Int (* (- 1) .def_32))
(define-fun .def_331 () Int (+ .def_26 .def_330))
(define-fun .def_332 () Bool (<= 1 .def_331))
(define-fun .def_334 () Bool (not .def_332))
(define-fun .def_358 () Bool (and .def_334 .def_357))
(define-fun .def_366 () Bool (and .def_358 .def_365))
(define-fun .def_363 () Bool (and .def_360 .def_362))
(define-fun .def_340 () Int (+ .def_32 .def_339))
(define-fun .def_341 () Bool (= .def_340 (- 1)))
(define-fun .def_342 () Bool (and .def_338 .def_341))
(define-fun .def_343 () Bool (and .def_332 .def_342))
(define-fun .def_364 () Bool (and .def_343 .def_363))
(define-fun .def_367 () Bool (or .def_364 .def_366))
(define-fun .def_321 () Bool (= .def_61 148))
(define-fun .def_325 () Bool (and .def_321 .def_324))
(define-fun .def_304 () Int (* (- 1) |!{$(in_main#0)<$(in_rec_array_insert_sort#4)<k>>}.next|))
(define-fun .def_305 () Int (+ .def_12 .def_304))
(define-fun .def_306 () Bool (= .def_305 (- 1)))
(define-fun .def_307 () Bool (and .def_83 .def_306))
(define-fun .def_308 () Bool (and .def_86 .def_307))
(define-fun .def_309 () Bool (and .def_122 .def_308))
(define-fun .def_310 () Bool (and .def_124 .def_309))
(define-fun .def_311 () Bool (and .def_126 .def_310))
(define-fun .def_312 () Bool (and .def_128 .def_311))
(define-fun .def_313 () Bool (and .def_96 .def_312))
(define-fun .def_314 () Bool (and .def_131 .def_313))
(define-fun .def_315 () Bool (and .def_152 .def_314))
(define-fun .def_316 () Bool (and .def_102 .def_315))
(define-fun .def_317 () Bool (and .def_104 .def_316))
(define-fun .def_318 () Bool (and .def_106 .def_317))
(define-fun .def_319 () Bool (and .def_108 .def_318))
(define-fun .def_276 () Bool (<= .def_14 .def_10))
(define-fun .def_287 () Bool (not .def_276))
(define-fun .def_320 () Bool (and .def_287 .def_319))
(define-fun .def_326 () Bool (and .def_320 .def_325))
(define-fun .def_269 () Bool (= !pc.next 148))
(define-fun .def_322 () Bool (and .def_269 .def_321))
(define-fun .def_240 () Int (* (- 1) |!{$(in_main#0)<$(in_rec_array_insert_sort#4)<l>>}.next|))
(define-fun .def_288 () Int (+ .def_14 .def_240))
(define-fun .def_289 () Bool (= .def_288 (- 1)))
(define-fun .def_290 () Bool (and .def_85 .def_289))
(define-fun .def_291 () Bool (and .def_122 .def_290))
(define-fun .def_292 () Bool (and .def_124 .def_291))
(define-fun .def_293 () Bool (and .def_126 .def_292))
(define-fun .def_294 () Bool (and .def_128 .def_293))
(define-fun .def_295 () Bool (and .def_96 .def_294))
(define-fun .def_296 () Bool (and .def_131 .def_295))
(define-fun .def_297 () Bool (and .def_152 .def_296))
(define-fun .def_298 () Bool (and .def_102 .def_297))
(define-fun .def_299 () Bool (and .def_104 .def_298))
(define-fun .def_300 () Bool (and .def_106 .def_299))
(define-fun .def_301 () Bool (and .def_108 .def_300))
(define-fun .def_279 () Int (+ .def_8 .def_14))
(define-fun .def_280 () Int (select .def_36 .def_279))
(define-fun .def_277 () Int (+ .def_8 .def_12))
(define-fun .def_278 () Int (select .def_36 .def_277))
(define-fun .def_281 () Bool (<= .def_278 .def_280))
(define-fun .def_282 () Int (ite .def_281 1 0))
(define-fun .def_283 () Bool (= .def_282 0))
(define-fun .def_284 () Bool (not .def_283))
(define-fun .def_302 () Bool (and .def_284 .def_301))
(define-fun .def_303 () Bool (and .def_276 .def_302))
(define-fun .def_323 () Bool (and .def_303 .def_322))
(define-fun .def_327 () Bool (or .def_323 .def_326))
(define-fun .def_267 () Bool (= .def_61 140))
(define-fun .def_272 () Bool (and .def_227 .def_267))
(define-fun .def_257 () Bool (and .def_127 .def_256))
(define-fun .def_258 () Bool (and .def_96 .def_257))
(define-fun .def_259 () Bool (and .def_131 .def_258))
(define-fun .def_260 () Bool (and .def_152 .def_259))
(define-fun .def_261 () Bool (and .def_102 .def_260))
(define-fun .def_262 () Bool (and .def_104 .def_261))
(define-fun .def_263 () Bool (and .def_106 .def_262))
(define-fun .def_264 () Bool (and .def_108 .def_263))
(define-fun .def_235 () Int (* (- 1) .def_12))
(define-fun .def_236 () Int (+ .def_10 .def_235))
(define-fun .def_237 () Bool (<= 1 .def_236))
(define-fun .def_239 () Bool (not .def_237))
(define-fun .def_265 () Bool (and .def_239 .def_264))
(define-fun .def_273 () Bool (and .def_265 .def_272))
(define-fun .def_270 () Bool (and .def_267 .def_269))
(define-fun .def_241 () Int (+ .def_12 .def_240))
(define-fun .def_242 () Bool (= .def_241 (- 1)))
(define-fun .def_243 () Bool (and .def_85 .def_242))
(define-fun .def_244 () Bool (and .def_122 .def_243))
(define-fun .def_245 () Bool (and .def_124 .def_244))
(define-fun .def_246 () Bool (and .def_126 .def_245))
(define-fun .def_247 () Bool (and .def_128 .def_246))
(define-fun .def_248 () Bool (and .def_96 .def_247))
(define-fun .def_249 () Bool (and .def_131 .def_248))
(define-fun .def_250 () Bool (and .def_152 .def_249))
(define-fun .def_251 () Bool (and .def_102 .def_250))
(define-fun .def_252 () Bool (and .def_104 .def_251))
(define-fun .def_253 () Bool (and .def_106 .def_252))
(define-fun .def_254 () Bool (and .def_108 .def_253))
(define-fun .def_255 () Bool (and .def_237 .def_254))
(define-fun .def_271 () Bool (and .def_255 .def_270))
(define-fun .def_274 () Bool (or .def_271 .def_273))
(define-fun .def_219 () Bool (= .def_61 190))
(define-fun .def_228 () Bool (and .def_219 .def_227))
(define-fun .def_207 () Int (* (- 1) |!{$(in_main#0)<k#1>}.next|))
(define-fun .def_208 () Int (+ .def_24 .def_207))
(define-fun .def_209 () Bool (= .def_208 (- 1)))
(define-fun .def_210 () Bool (and .def_127 .def_209))
(define-fun .def_211 () Bool (and .def_96 .def_210))
(define-fun .def_212 () Bool (and .def_131 .def_211))
(define-fun .def_213 () Bool (and .def_152 .def_212))
(define-fun .def_214 () Bool (and .def_102 .def_213))
(define-fun .def_215 () Bool (and .def_104 .def_214))
(define-fun .def_216 () Bool (and .def_106 .def_215))
(define-fun .def_217 () Bool (and .def_108 .def_216))
(define-fun .def_169 () Bool (<= .def_16 .def_28))
(define-fun .def_218 () Bool (and .def_169 .def_217))
(define-fun .def_229 () Bool (and .def_218 .def_228))
(define-fun .def_161 () Bool (= !pc.next 190))
(define-fun .def_224 () Bool (and .def_161 .def_219))
(define-fun .def_133 () Int (* (- 1) |!{$(in_main#0)<l>}.next|))
(define-fun .def_198 () Int (+ .def_28 .def_133))
(define-fun .def_199 () Bool (= .def_198 (- 1)))
(define-fun .def_200 () Bool (and .def_132 .def_199))
(define-fun .def_201 () Bool (and .def_102 .def_200))
(define-fun .def_202 () Bool (and .def_104 .def_201))
(define-fun .def_203 () Bool (and .def_106 .def_202))
(define-fun .def_204 () Bool (and .def_108 .def_203))
(define-fun .def_173 () Int (+ .def_18 .def_28))
(define-fun .def_174 () Int (select .def_36 .def_173))
(define-fun .def_171 () Int (+ .def_18 .def_24))
(define-fun .def_172 () Int (select .def_36 .def_171))
(define-fun .def_175 () Bool (<= .def_172 .def_174))
(define-fun .def_176 () Int (ite .def_175 1 0))
(define-fun .def_177 () Bool (= .def_176 0))
(define-fun .def_178 () Bool (not .def_177))
(define-fun .def_205 () Bool (and .def_178 .def_204))
(define-fun .def_170 () Bool (not .def_169))
(define-fun .def_206 () Bool (and .def_170 .def_205))
(define-fun .def_225 () Bool (and .def_206 .def_224))
(define-fun .def_221 () Bool (= !pc.next 210))
(define-fun .def_222 () Bool (and .def_219 .def_221))
(define-fun .def_182 () Bool (and .def_81 .def_177))
(define-fun .def_183 () Bool (and .def_82 .def_182))
(define-fun .def_184 () Bool (and .def_84 .def_183))
(define-fun .def_185 () Bool (and .def_86 .def_184))
(define-fun .def_186 () Bool (and .def_122 .def_185))
(define-fun .def_187 () Bool (and .def_124 .def_186))
(define-fun .def_188 () Bool (and .def_126 .def_187))
(define-fun .def_189 () Bool (and .def_128 .def_188))
(define-fun .def_190 () Bool (and .def_96 .def_189))
(define-fun .def_191 () Bool (and .def_131 .def_190))
(define-fun .def_192 () Bool (and .def_152 .def_191))
(define-fun .def_193 () Bool (and .def_102 .def_192))
(define-fun .def_194 () Bool (and .def_104 .def_193))
(define-fun .def_195 () Bool (and .def_106 .def_194))
(define-fun .def_196 () Bool (and .def_108 .def_195))
(define-fun .def_197 () Bool (and .def_170 .def_196))
(define-fun .def_223 () Bool (and .def_197 .def_222))
(define-fun .def_226 () Bool (or .def_223 .def_225))
(define-fun .def_230 () Bool (or .def_226 .def_229))
(define-fun .def_164 () Bool (= !pc.next 0))
(define-fun .def_159 () Bool (= .def_61 182))
(define-fun .def_165 () Bool (and .def_159 .def_164))
(define-fun .def_117 () Int (* (- 1) .def_24))
(define-fun .def_118 () Int (+ .def_16 .def_117))
(define-fun .def_119 () Bool (<= .def_118 1))
(define-fun .def_142 () Bool (and .def_81 .def_119))
(define-fun .def_143 () Bool (and .def_82 .def_142))
(define-fun .def_144 () Bool (and .def_84 .def_143))
(define-fun .def_145 () Bool (and .def_86 .def_144))
(define-fun .def_146 () Bool (and .def_122 .def_145))
(define-fun .def_147 () Bool (and .def_124 .def_146))
(define-fun .def_148 () Bool (and .def_126 .def_147))
(define-fun .def_149 () Bool (and .def_128 .def_148))
(define-fun .def_150 () Bool (and .def_96 .def_149))
(define-fun .def_151 () Bool (and .def_131 .def_150))
(define-fun .def_153 () Bool (and .def_151 .def_152))
(define-fun .def_154 () Bool (and .def_102 .def_153))
(define-fun .def_155 () Bool (and .def_104 .def_154))
(define-fun .def_156 () Bool (and .def_106 .def_155))
(define-fun .def_157 () Bool (and .def_108 .def_156))
(define-fun .def_166 () Bool (and .def_157 .def_165))
(define-fun .def_162 () Bool (and .def_159 .def_161))
(define-fun .def_134 () Int (+ .def_24 .def_133))
(define-fun .def_135 () Bool (= .def_134 (- 1)))
(define-fun .def_136 () Bool (and .def_132 .def_135))
(define-fun .def_137 () Bool (and .def_102 .def_136))
(define-fun .def_138 () Bool (and .def_104 .def_137))
(define-fun .def_139 () Bool (and .def_106 .def_138))
(define-fun .def_140 () Bool (and .def_108 .def_139))
(define-fun .def_120 () Bool (not .def_119))
(define-fun .def_141 () Bool (and .def_120 .def_140))
(define-fun .def_163 () Bool (and .def_141 .def_162))
(define-fun .def_167 () Bool (or .def_163 .def_166))
(define-fun .def_113 () Bool (and .def_64 .def_112))
(define-fun .def_100 () Bool (= |!{$(in_main#0)<l>}.next| |%{$(in_main#0)<l>}#1|))
(define-fun .def_98 () Bool (= |!{%memaddr}.next| 2))
(define-fun .def_94 () Bool (= |!{$(in_main#0)<k#1>}.next| |%{$(in_main#0)<k#1>}#1|))
(define-fun .def_92 () Bool (= |!{$(in_main#0)<k>}.next| 0))
(define-fun .def_90 () Bool (= |!{$(in_main#0)<&array>}.next| 1))
(define-fun .def_88 () Bool (= |!{$(in_main#0)<N>}.next| |!{$(in_main#0)<$(in___VERIFIER_nondet_int#1)<h#<__VERIFIER_nondet_int.return>>>}|))
(define-fun .def_89 () Bool (and .def_87 .def_88))
(define-fun .def_91 () Bool (and .def_89 .def_90))
(define-fun .def_93 () Bool (and .def_91 .def_92))
(define-fun .def_95 () Bool (and .def_93 .def_94))
(define-fun .def_97 () Bool (and .def_95 .def_96))
(define-fun .def_99 () Bool (and .def_97 .def_98))
(define-fun .def_101 () Bool (and .def_99 .def_100))
(define-fun .def_103 () Bool (and .def_101 .def_102))
(define-fun .def_105 () Bool (and .def_103 .def_104))
(define-fun .def_107 () Bool (and .def_105 .def_106))
(define-fun .def_109 () Bool (and .def_107 .def_108))
(define-fun .def_76 () Bool (<= |!{$(in_main#0)<$(in___VERIFIER_nondet_int#1)<h#<__VERIFIER_nondet_int.return>>>}| 0))
(define-fun .def_77 () Bool (not .def_76))
(define-fun .def_78 () Int (ite .def_77 1 0))
(define-fun .def_79 () Bool (= .def_78 0))
(define-fun .def_80 () Bool (not .def_79))
(define-fun .def_110 () Bool (and .def_80 .def_109))
(define-fun .def_114 () Bool (and .def_110 .def_113))
(define-fun .def_168 () Bool (or .def_114 .def_167))
(define-fun .def_231 () Bool (or .def_168 .def_230))
(define-fun .def_275 () Bool (or .def_231 .def_274))
(define-fun .def_328 () Bool (or .def_275 .def_327))
(define-fun .def_368 () Bool (or .def_328 .def_367))
(define-fun .def_400 () Bool (or .def_368 .def_399))
(define-fun .def_503 () Bool (! (or .def_400 .def_502) :trans true))
(define-fun .def_232 () Bool (= .def_61 210))
(define-fun .def_504 () Bool (! (not .def_232) :invar-property 0 :invar-property-name ||))
(assert true)
